
Gurobi 7.5.2 (mac64, Python) logging started Fri Apr  6 17:53:48 2018

Academic license - for non-commercial use only

Gurobi 7.5.2 (mac64, Python) logging started Fri Apr  6 17:54:37 2018

Academic license - for non-commercial use only

Gurobi 7.5.2 (mac64, Python) logging started Fri Apr  6 17:55:03 2018

Academic license - for non-commercial use only

Gurobi 7.5.2 (mac64, Python) logging started Fri Apr  6 17:55:17 2018

Academic license - for non-commercial use only

Gurobi 7.5.2 (mac64, Python) logging started Fri Apr  6 17:55:34 2018

Academic license - for non-commercial use only

Gurobi 7.5.2 (mac64, Python) logging started Fri Apr  6 17:56:16 2018

Academic license - for non-commercial use only
Optimize a model with 55 rows, 55 columns and 3025 nonzeros
Variable types: 0 continuous, 55 integer (55 binary)
Coefficient statistics:
  Matrix range     [1e+00, 1e+00]
  Objective range  [1e+00, 1e+00]
  Bounds range     [1e+00, 1e+00]
  RHS range        [1e+00, 1e+00]
Found heuristic solution: objective 1.0000000
Presolve removed 55 rows and 55 columns
Presolve time: 0.01s
Presolve: All rows and columns removed

Explored 0 nodes (0 simplex iterations) in 0.01 seconds
Thread count was 1 (of 8 available processors)

Solution count 1: 1 

Optimal solution found (tolerance 1.00e-04)
Best objective 1.000000000000e+00, best bound 1.000000000000e+00, gap 0.0000%

Gurobi 7.5.2 (mac64, Python) logging started Fri Apr  6 17:59:54 2018

Academic license - for non-commercial use only
Optimize a model with 55 rows, 55 columns and 3025 nonzeros
Variable types: 0 continuous, 55 integer (55 binary)
Coefficient statistics:
  Matrix range     [1e+00, 1e+00]
  Objective range  [1e+00, 1e+00]
  Bounds range     [1e+00, 1e+00]
  RHS range        [1e+00, 1e+00]
Found heuristic solution: objective 1.0000000
Presolve removed 55 rows and 55 columns
Presolve time: 0.00s
Presolve: All rows and columns removed

Explored 0 nodes (0 simplex iterations) in 0.00 seconds
Thread count was 1 (of 8 available processors)

Solution count 1: 1 

Optimal solution found (tolerance 1.00e-04)
Best objective 1.000000000000e+00, best bound 1.000000000000e+00, gap 0.0000%

Gurobi 7.5.2 (mac64, Python) logging started Fri Apr  6 18:08:49 2018

Academic license - for non-commercial use only
Optimize a model with 55 rows, 55 columns and 541 nonzeros
Variable types: 0 continuous, 55 integer (55 binary)
Coefficient statistics:
  Matrix range     [1e+00, 1e+00]
  Objective range  [1e+00, 1e+00]
  Bounds range     [1e+00, 1e+00]
  RHS range        [1e+00, 1e+00]
Found heuristic solution: objective 11.0000000
Presolve removed 50 rows and 49 columns
Presolve time: 0.02s
Presolved: 5 rows, 6 columns, 12 nonzeros
Found heuristic solution: objective 9.0000000
Variable types: 0 continuous, 6 integer (6 binary)

Root relaxation: cutoff, 4 iterations, 0.00 seconds

    Nodes    |    Current Node    |     Objective Bounds      |     Work
 Expl Unexpl |  Obj  Depth IntInf | Incumbent    BestBd   Gap | It/Node Time

     0     0     cutoff    0         9.00000    9.00000  0.00%     -    0s

Explored 0 nodes (4 simplex iterations) in 0.04 seconds
Thread count was 8 (of 8 available processors)

Solution count 1: 9 

Optimal solution found (tolerance 1.00e-04)
Best objective 9.000000000000e+00, best bound 9.000000000000e+00, gap 0.0000%

Gurobi 7.5.2 (mac64, Python) logging started Fri Apr  6 18:09:37 2018

Academic license - for non-commercial use only

Gurobi 7.5.2 (mac64, Python) logging started Fri Apr  6 18:11:51 2018

Academic license - for non-commercial use only

Gurobi 7.5.2 (mac64, Python) logging started Fri Apr  6 18:13:22 2018

Academic license - for non-commercial use only

Gurobi 7.5.2 (mac64, Python) logging started Fri Apr  6 18:15:04 2018

Academic license - for non-commercial use only

Gurobi 7.5.2 (mac64, Python) logging started Fri Apr  6 18:15:21 2018

Academic license - for non-commercial use only

Gurobi 7.5.2 (mac64, Python) logging started Fri Apr  6 18:15:58 2018

Academic license - for non-commercial use only

Gurobi 7.5.2 (mac64, Python) logging started Fri Apr  6 18:22:34 2018

Academic license - for non-commercial use only

Gurobi 7.5.2 (mac64, Python) logging started Fri Apr  6 18:22:48 2018

Academic license - for non-commercial use only

Gurobi 7.5.2 (mac64, Python) logging started Fri Apr  6 18:22:54 2018

Academic license - for non-commercial use only

Gurobi 7.5.2 (mac64, Python) logging started Fri Apr  6 18:23:03 2018

Academic license - for non-commercial use only

Gurobi 7.5.2 (mac64, Python) logging started Fri Apr  6 18:23:27 2018

Academic license - for non-commercial use only

Gurobi 7.5.2 (mac64, Python) logging started Fri Apr  6 18:23:32 2018

Academic license - for non-commercial use only

Gurobi 7.5.2 (mac64, Python) logging started Fri Apr  6 18:24:35 2018

Academic license - for non-commercial use only

Gurobi 7.5.2 (mac64, Python) logging started Fri Apr  6 18:25:07 2018

Academic license - for non-commercial use only

Gurobi 7.5.2 (mac64, Python) logging started Fri Apr  6 18:25:53 2018

Academic license - for non-commercial use only

Gurobi 7.5.2 (mac64, Python) logging started Fri Apr  6 18:26:40 2018

Academic license - for non-commercial use only

Gurobi 7.5.2 (mac64, Python) logging started Fri Apr  6 18:30:05 2018

Academic license - for non-commercial use only

Gurobi 7.5.2 (mac64, Python) logging started Fri Apr  6 22:41:31 2018

Academic license - for non-commercial use only

Gurobi 7.5.2 (mac64, Python) logging started Fri Apr  6 22:42:36 2018

Academic license - for non-commercial use only

Gurobi 7.5.2 (mac64, Python) logging started Fri Apr  6 22:44:16 2018

Academic license - for non-commercial use only

Gurobi 7.5.2 (mac64, Python) logging started Fri Apr  6 22:44:24 2018

Academic license - for non-commercial use only

Gurobi 7.5.2 (mac64, Python) logging started Fri Apr  6 22:48:15 2018

Academic license - for non-commercial use only

Gurobi 7.5.2 (mac64, Python) logging started Fri Apr  6 22:48:27 2018

Academic license - for non-commercial use only

Gurobi 7.5.2 (mac64, Python) logging started Fri Apr  6 22:48:55 2018

Academic license - for non-commercial use only

Gurobi 7.5.2 (mac64, Python) logging started Fri Apr  6 22:49:06 2018

Academic license - for non-commercial use only

Gurobi 7.5.2 (mac64, Python) logging started Fri Apr  6 22:49:16 2018

Academic license - for non-commercial use only

Gurobi 7.5.2 (mac64, Python) logging started Fri Apr  6 23:20:38 2018

Academic license - for non-commercial use only

Gurobi 7.5.2 (mac64, Python) logging started Fri Apr  6 23:21:04 2018

Academic license - for non-commercial use only

Gurobi 7.5.2 (mac64, Python) logging started Fri Apr  6 23:23:11 2018

Academic license - for non-commercial use only

Gurobi 7.5.2 (mac64, Python) logging started Fri Apr  6 23:24:12 2018

Academic license - for non-commercial use only

Gurobi 7.5.2 (mac64, Python) logging started Fri Apr  6 23:25:21 2018

Academic license - for non-commercial use only

Gurobi 7.5.2 (mac64, Python) logging started Fri Apr  6 23:26:03 2018

Academic license - for non-commercial use only

Gurobi 7.5.2 (mac64, Python) logging started Sat Apr  7 00:07:33 2018

Academic license - for non-commercial use only

Gurobi 7.5.2 (mac64, Python) logging started Sat Apr  7 21:54:43 2018

Academic license - for non-commercial use only

Gurobi 7.5.2 (mac64, Python) logging started Sat Apr  7 22:04:58 2018

Academic license - for non-commercial use only

Gurobi 7.5.2 (mac64, Python) logging started Sat Apr  7 22:05:00 2018

Academic license - for non-commercial use only

Gurobi 7.5.2 (mac64, Python) logging started Sat Apr  7 22:05:19 2018

Academic license - for non-commercial use only

Gurobi 7.5.2 (mac64, Python) logging started Sat Apr  7 22:05:38 2018

Academic license - for non-commercial use only

Gurobi 7.5.2 (mac64, Python) logging started Sat Apr  7 22:08:59 2018

Academic license - for non-commercial use only

Gurobi 7.5.2 (mac64, Python) logging started Sat Apr  7 22:09:42 2018

Academic license - for non-commercial use only

Gurobi 7.5.2 (mac64, Python) logging started Sat Apr  7 22:10:04 2018

Academic license - for non-commercial use only

Gurobi 7.5.2 (mac64, Python) logging started Sat Apr  7 22:10:29 2018

Academic license - for non-commercial use only

Gurobi 7.5.2 (mac64, Python) logging started Sat Apr  7 22:10:35 2018

Academic license - for non-commercial use only

Gurobi 7.5.2 (mac64, Python) logging started Sat Apr  7 22:10:52 2018

Academic license - for non-commercial use only

Gurobi 7.5.2 (mac64, Python) logging started Sat Apr  7 22:11:10 2018

Academic license - for non-commercial use only

Gurobi 7.5.2 (mac64, Python) logging started Sat Apr  7 22:11:24 2018

Academic license - for non-commercial use only

Gurobi 7.5.2 (mac64, Python) logging started Sat Apr  7 22:11:50 2018

Academic license - for non-commercial use only

Gurobi 7.5.2 (mac64, Python) logging started Sat Apr  7 22:11:55 2018

Academic license - for non-commercial use only

Gurobi 7.5.2 (mac64, Python) logging started Sat Apr  7 22:11:58 2018

Academic license - for non-commercial use only

Gurobi 7.5.2 (mac64, Python) logging started Sat Apr  7 22:12:01 2018

Academic license - for non-commercial use only

Gurobi 7.5.2 (mac64, Python) logging started Sat Apr  7 22:12:02 2018

Academic license - for non-commercial use only

Gurobi 7.5.2 (mac64, Python) logging started Sat Apr  7 22:12:04 2018

Academic license - for non-commercial use only

Gurobi 7.5.2 (mac64, Python) logging started Sat Apr  7 22:12:05 2018

Academic license - for non-commercial use only

Gurobi 7.5.2 (mac64, Python) logging started Sat Apr  7 22:16:50 2018

Academic license - for non-commercial use only

Gurobi 7.5.2 (mac64, Python) logging started Sat Apr  7 22:18:02 2018

Academic license - for non-commercial use only

Gurobi 7.5.2 (mac64, Python) logging started Sat Apr  7 22:18:36 2018

Academic license - for non-commercial use only

Gurobi 7.5.2 (mac64, Python) logging started Sat Apr  7 22:23:11 2018

Academic license - for non-commercial use only

Gurobi 7.5.2 (mac64, Python) logging started Sat Apr  7 22:26:14 2018

Academic license - for non-commercial use only

Gurobi 7.5.2 (mac64, Python) logging started Sat Apr  7 22:27:38 2018

Academic license - for non-commercial use only

Gurobi 7.5.2 (mac64, Python) logging started Sat Apr  7 22:27:50 2018

Academic license - for non-commercial use only

Gurobi 7.5.2 (mac64, Python) logging started Sat Apr  7 22:28:03 2018

Academic license - for non-commercial use only

Gurobi 7.5.2 (mac64, Python) logging started Sat Apr  7 22:33:34 2018

Academic license - for non-commercial use only

Gurobi 7.5.2 (mac64, Python) logging started Sat Apr  7 22:38:51 2018

Academic license - for non-commercial use only

Gurobi 7.5.2 (mac64, Python) logging started Sat Apr  7 22:57:54 2018

Academic license - for non-commercial use only

Gurobi 7.5.2 (mac64, Python) logging started Sat Apr  7 22:59:03 2018

Academic license - for non-commercial use only

Gurobi 7.5.2 (mac64, Python) logging started Mon Apr  9 13:47:33 2018

Academic license - for non-commercial use only

Gurobi 7.5.2 (mac64, Python) logging started Mon Apr  9 13:52:37 2018

Academic license - for non-commercial use only

Gurobi 7.5.2 (mac64, Python) logging started Mon Apr  9 15:48:42 2018

Academic license - for non-commercial use only

Gurobi 7.5.2 (mac64, Python) logging started Mon Apr  9 15:48:56 2018

Academic license - for non-commercial use only

Gurobi 7.5.2 (mac64, Python) logging started Mon Apr  9 15:49:25 2018

Academic license - for non-commercial use only

Gurobi 7.5.2 (mac64, Python) logging started Mon Apr  9 15:54:56 2018

Academic license - for non-commercial use only

Gurobi 7.5.2 (mac64, Python) logging started Mon Apr  9 15:59:16 2018

Academic license - for non-commercial use only

Gurobi 7.5.2 (mac64, Python) logging started Mon Apr  9 15:59:38 2018

Academic license - for non-commercial use only

Gurobi 7.5.2 (mac64, Python) logging started Mon Apr  9 16:00:33 2018

Academic license - for non-commercial use only

Gurobi 7.5.2 (mac64, Python) logging started Mon Apr  9 16:23:16 2018

Academic license - for non-commercial use only

Gurobi 7.5.2 (mac64, Python) logging started Mon Apr  9 16:24:00 2018

Academic license - for non-commercial use only

Gurobi 7.5.2 (mac64, Python) logging started Mon Apr  9 16:38:40 2018

Academic license - for non-commercial use only

Gurobi 7.5.2 (mac64, Python) logging started Mon Apr  9 16:43:06 2018

Academic license - for non-commercial use only

Gurobi 7.5.2 (mac64, Python) logging started Mon Apr  9 16:45:40 2018

Academic license - for non-commercial use only

Gurobi 7.5.2 (mac64, Python) logging started Mon Apr  9 16:45:55 2018

Academic license - for non-commercial use only

Gurobi 7.5.2 (mac64, Python) logging started Mon Apr  9 16:47:28 2018

Academic license - for non-commercial use only

Gurobi 7.5.2 (mac64, Python) logging started Mon Apr  9 16:48:14 2018

Academic license - for non-commercial use only

Gurobi 7.5.2 (mac64, Python) logging started Mon Apr  9 17:01:33 2018

Academic license - for non-commercial use only

Gurobi 7.5.2 (mac64, Python) logging started Mon Apr  9 17:03:33 2018

Academic license - for non-commercial use only

Gurobi 7.5.2 (mac64, Python) logging started Mon Apr  9 17:04:37 2018

Academic license - for non-commercial use only

Gurobi 7.5.2 (mac64, Python) logging started Mon Apr  9 17:05:10 2018

Academic license - for non-commercial use only

Gurobi 7.5.2 (mac64, Python) logging started Mon Apr  9 17:05:14 2018

Academic license - for non-commercial use only

Gurobi 7.5.2 (mac64, Python) logging started Mon Apr  9 17:07:20 2018

Academic license - for non-commercial use only

Gurobi 7.5.2 (mac64, Python) logging started Mon Apr  9 17:07:35 2018

Academic license - for non-commercial use only

Gurobi 7.5.2 (mac64, Python) logging started Mon Apr  9 17:08:40 2018

Academic license - for non-commercial use only
Changed value of parameter ResultFile to output.sol
   Prev:   Default: 
Optimize a model with 55 rows, 55 columns and 541 nonzeros
Variable types: 0 continuous, 55 integer (55 binary)
Coefficient statistics:
  Matrix range     [1e+00, 1e+00]
  Objective range  [1e+00, 1e+00]
  Bounds range     [1e+00, 1e+00]
  RHS range        [1e+00, 1e+00]
Found heuristic solution: objective 11.0000000
Presolve removed 50 rows and 49 columns
Presolve time: 0.00s
Presolved: 5 rows, 6 columns, 12 nonzeros
Found heuristic solution: objective 9.0000000
Variable types: 0 continuous, 6 integer (6 binary)

Root relaxation: cutoff, 4 iterations, 0.00 seconds

    Nodes    |    Current Node    |     Objective Bounds      |     Work
 Expl Unexpl |  Obj  Depth IntInf | Incumbent    BestBd   Gap | It/Node Time

     0     0     cutoff    0         9.00000    9.00000  0.00%     -    0s

Explored 0 nodes (4 simplex iterations) in 0.00 seconds
Thread count was 8 (of 8 available processors)

Solution count 1: 9 

Optimal solution found (tolerance 1.00e-04)
Best objective 9.000000000000e+00, best bound 9.000000000000e+00, gap 0.0000%

Wrote requested result file 'output.sol'


Gurobi 7.5.2 (mac64, Python) logging started Mon Apr  9 17:11:00 2018

Academic license - for non-commercial use only
Changed value of parameter ResultFile to output.sol
   Prev:   Default: 
Optimize a model with 55 rows, 55 columns and 541 nonzeros
Variable types: 0 continuous, 55 integer (55 binary)
Coefficient statistics:
  Matrix range     [1e+00, 1e+00]
  Objective range  [1e+00, 1e+00]
  Bounds range     [1e+00, 1e+00]
  RHS range        [1e+00, 1e+00]
Found heuristic solution: objective 11.0000000
Presolve removed 50 rows and 49 columns
Presolve time: 0.00s
Presolved: 5 rows, 6 columns, 12 nonzeros
Found heuristic solution: objective 9.0000000
Variable types: 0 continuous, 6 integer (6 binary)

Root relaxation: cutoff, 4 iterations, 0.00 seconds

    Nodes    |    Current Node    |     Objective Bounds      |     Work
 Expl Unexpl |  Obj  Depth IntInf | Incumbent    BestBd   Gap | It/Node Time

     0     0     cutoff    0         9.00000    9.00000  0.00%     -    0s

Explored 0 nodes (4 simplex iterations) in 0.00 seconds
Thread count was 8 (of 8 available processors)

Solution count 1: 9 

Optimal solution found (tolerance 1.00e-04)
Best objective 9.000000000000e+00, best bound 9.000000000000e+00, gap 0.0000%

Wrote requested result file 'output.sol'


Gurobi 7.5.2 (mac64, Python) logging started Mon Apr  9 17:12:11 2018

Academic license - for non-commercial use only

Gurobi 7.5.2 (mac64, Python) logging started Mon Apr  9 17:12:15 2018

Academic license - for non-commercial use only

Gurobi 7.5.2 (mac64, Python) logging started Mon Apr  9 17:21:42 2018

Academic license - for non-commercial use only

Gurobi 7.5.2 (mac64, Python) logging started Mon Apr  9 17:21:46 2018

Academic license - for non-commercial use only

Gurobi 7.5.2 (mac64, Python) logging started Mon Apr  9 17:21:56 2018

Academic license - for non-commercial use only

Gurobi 7.5.2 (mac64, Python) logging started Mon Apr  9 17:22:21 2018

Academic license - for non-commercial use only
